Route #1: 58 41 40 55 2 34 21
Route #2: 104 10 79 76 61 85 11 92 116 95 96
Route #3: 26 108 100 49 73 114 71 126
Route #4: 36 110 65 105 17 101 48 33 46
Route #5: 62 56 13 57 35 77 25 84
Route #6: 99 42 16 32 12 37 8 69 97
Route #7: 87 121 94 111 4 98 68 80
Route #8: 83 109 51 120 31 125
Route #9: 63 19 6 29 45 22 54 7
Route #10: 81 107 128 72 112 102 74
Route #11: 14 117 115 122 106 5 123
Route #12: 90 44 1 23 59 18 64
Route #13: 53 70 127 28 118 38 24
Route #14: 78 50 52 113 20 119 47
Route #15: 93 67 30 43 39 60
Route #16: 88 89 103 66 75 15
Route #17: 86 27 9 124 82
Route #18: 3 91
Cost 29903.96154225945